p edge 92 1886
e 1 2
e 1 3
e 1 4
e 1 5
e 1 6
e 1 7
e 1 8
e 1 9
e 1 10
e 1 11
e 1 12
e 1 13
e 1 14
e 1 15
e 1 16
e 1 33
e 1 34
e 1 35
e 1 36
e 1 37
e 1 38
e 1 39
e 1 40
e 1 41
e 1 42
e 1 43
e 1 44
e 1 45
e 1 46
e 1 47
e 1 48
e 1 49
e 1 50
e 1 51
e 1 52
e 1 53
e 1 54
e 1 55
e 1 56
e 1 57
e 1 58
e 1 59
e 1 60
e 1 61
e 1 62
e 1 63
e 1 64
e 1 65
e 1 66
e 1 67
e 1 68
e 1 69
e 1 70
e 1 71
e 1 72
e 1 73
e 1 74
e 1 75
e 1 76
e 1 77
e 1 78
e 1 79
e 1 80
e 1 81
e 1 82
e 1 83
e 1 84
e 1 85
e 1 86
e 1 87
e 1 88
e 1 89
e 1 90
e 1 91
e 1 92
e 2 3
e 2 4
e 2 5
e 2 6
e 2 7
e 2 8
e 2 9
e 2 10
e 2 11
e 2 12
e 2 13
e 2 14
e 2 15
e 2 16
e 2 33
e 2 34
e 2 35
e 2 36
e 2 37
e 2 38
e 2 39
e 2 40
e 2 41
e 2 42
e 2 43
e 2 44
e 2 45
e 2 46
e 2 47
e 2 48
e 2 49
e 2 50
e 2 51
e 2 52
e 2 53
e 2 54
e 2 55
e 2 56
e 2 57
e 2 58
e 2 59
e 2 60
e 2 61
e 2 62
e 2 63
e 2 64
e 2 65
e 2 66
e 2 67
e 2 68
e 2 69
e 2 70
e 2 71
e 2 72
e 2 73
e 2 74
e 2 75
e 2 76
e 2 77
e 2 78
e 2 79
e 2 80
e 2 81
e 2 82
e 2 83
e 2 84
e 2 85
e 2 86
e 2 87
e 2 88
e 2 89
e 2 90
e 2 91
e 2 92
e 3 4
e 3 5
e 3 6
e 3 7
e 3 8
e 3 9
e 3 10
e 3 11
e 3 12
e 3 13
e 3 14
e 3 15
e 3 16
e 3 33
e 3 37
e 3 38
e 3 39
e 3 40
e 3 41
e 3 42
e 3 43
e 3 44
e 3 45
e 3 46
e 3 47
e 3 48
e 3 49
e 3 50
e 3 63
e 3 70
e 3 71
e 3 77
e 3 78
e 3 79
e 3 80
e 3 82
e 3 83
e 3 84
e 3 85
e 3 86
e 3 87
e 3 90
e 3 91
e 3 92
e 4 5
e 4 6
e 4 7
e 4 8
e 4 9
e 4 10
e 4 11
e 4 12
e 4 13
e 4 14
e 4 15
e 4 16
e 4 33
e 4 38
e 4 39
e 4 40
e 4 41
e 4 42
e 4 43
e 4 45
e 4 46
e 4 47
e 4 48
e 4 49
e 4 50
e 4 63
e 4 70
e 4 71
e 4 77
e 4 78
e 4 79
e 4 80
e 4 82
e 4 83
e 4 84
e 4 85
e 4 86
e 4 87
e 4 90
e 4 91
e 4 92
e 5 6
e 5 7
e 5 8
e 5 9
e 5 10
e 5 11
e 5 12
e 5 13
e 5 14
e 5 15
e 5 16
e 5 33
e 5 37
e 5 38
e 5 39
e 5 40
e 5 41
e 5 42
e 5 43
e 5 45
e 5 46
e 5 47
e 5 48
e 5 49
e 5 50
e 5 63
e 5 70
e 5 71
e 5 77
e 5 78
e 5 79
e 5 80
e 5 82
e 5 83
e 5 84
e 5 85
e 5 86
e 5 87
e 5 90
e 5 91
e 5 92
e 6 7
e 6 8
e 6 9
e 6 10
e 6 11
e 6 12
e 6 13
e 6 14
e 6 15
e 6 16
e 6 33
e 6 37
e 6 38
e 6 39
e 6 40
e 6 41
e 6 42
e 6 43
e 6 45
e 6 46
e 6 47
e 6 48
e 6 49
e 6 50
e 6 63
e 6 70
e 6 71
e 6 77
e 6 78
e 6 79
e 6 80
e 6 82
e 6 83
e 6 84
e 6 85
e 6 86
e 6 87
e 6 90
e 6 91
e 6 92
e 7 8
e 7 9
e 7 10
e 7 11
e 7 12
e 7 13
e 7 14
e 7 15
e 7 16
e 7 33
e 7 37
e 7 38
e 7 39
e 7 40
e 7 41
e 7 42
e 7 43
e 7 45
e 7 46
e 7 47
e 7 48
e 7 49
e 7 50
e 7 63
e 7 70
e 7 71
e 7 77
e 7 78
e 7 79
e 7 80
e 7 82
e 7 83
e 7 84
e 7 85
e 7 86
e 7 87
e 7 90
e 7 91
e 7 92
e 8 9
e 8 10
e 8 11
e 8 12
e 8 13
e 8 14
e 8 15
e 8 16
e 8 33
e 8 37
e 8 38
e 8 39
e 8 40
e 8 41
e 8 42
e 8 43
e 8 45
e 8 46
e 8 47
e 8 48
e 8 49
e 8 50
e 8 63
e 8 70
e 8 71
e 8 77
e 8 78
e 8 79
e 8 80
e 8 82
e 8 83
e 8 84
e 8 85
e 8 86
e 8 87
e 8 90
e 8 91
e 8 92
e 9 10
e 9 11
e 9 12
e 9 13
e 9 14
e 9 15
e 9 16
e 9 33
e 9 37
e 9 38
e 9 39
e 9 40
e 9 41
e 9 42
e 9 43
e 9 45
e 9 46
e 9 47
e 9 48
e 9 49
e 9 50
e 9 63
e 9 70
e 9 71
e 9 77
e 9 78
e 9 79
e 9 80
e 9 82
e 9 83
e 9 84
e 9 85
e 9 86
e 9 87
e 9 90
e 9 91
e 9 92
e 10 11
e 10 12
e 10 13
e 10 14
e 10 15
e 10 16
e 10 33
e 10 37
e 10 38
e 10 39
e 10 40
e 10 41
e 10 42
e 10 43
e 10 45
e 10 46
e 10 47
e 10 48
e 10 49
e 10 50
e 10 63
e 10 70
e 10 71
e 10 77
e 10 78
e 10 79
e 10 80
e 10 82
e 10 83
e 10 84
e 10 85
e 10 86
e 10 87
e 10 90
e 10 91
e 10 92
e 11 12
e 11 13
e 11 14
e 11 15
e 11 16
e 11 33
e 11 37
e 11 38
e 11 39
e 11 40
e 11 41
e 11 42
e 11 43
e 11 45
e 11 46
e 11 47
e 11 48
e 11 49
e 11 50
e 11 63
e 11 70
e 11 71
e 11 77
e 11 78
e 11 79
e 11 80
e 11 82
e 11 83
e 11 84
e 11 85
e 11 86
e 11 87
e 11 90
e 11 91
e 11 92
e 12 13
e 12 14
e 12 15
e 12 16
e 12 33
e 12 37
e 12 38
e 12 39
e 12 40
e 12 41
e 12 42
e 12 43
e 12 45
e 12 46
e 12 47
e 12 48
e 12 49
e 12 50
e 12 63
e 12 70
e 12 71
e 12 77
e 12 78
e 12 79
e 12 80
e 12 82
e 12 83
e 12 84
e 12 85
e 12 86
e 12 87
e 12 90
e 12 91
e 12 92
e 13 14
e 13 15
e 13 16
e 13 33
e 13 37
e 13 38
e 13 39
e 13 40
e 13 41
e 13 42
e 13 43
e 13 45
e 13 46
e 13 47
e 13 48
e 13 49
e 13 50
e 13 63
e 13 70
e 13 71
e 13 77
e 13 78
e 13 79
e 13 80
e 13 82
e 13 83
e 13 84
e 13 85
e 13 86
e 13 87
e 13 90
e 13 91
e 13 92
e 14 15
e 14 16
e 14 33
e 14 37
e 14 38
e 14 39
e 14 40
e 14 41
e 14 42
e 14 43
e 14 45
e 14 46
e 14 47
e 14 48
e 14 49
e 14 50
e 14 63
e 14 70
e 14 71
e 14 77
e 14 78
e 14 79
e 14 80
e 14 82
e 14 83
e 14 84
e 14 85
e 14 86
e 14 87
e 14 90
e 14 91
e 14 92
e 15 16
e 15 33
e 15 38
e 15 39
e 15 40
e 15 41
e 15 42
e 15 43
e 15 45
e 15 46
e 15 47
e 15 48
e 15 49
e 15 50
e 15 63
e 15 70
e 15 71
e 15 77
e 15 78
e 15 79
e 15 80
e 15 82
e 15 83
e 15 84
e 15 85
e 15 86
e 15 87
e 15 90
e 15 91
e 15 92
e 16 33
e 16 37
e 16 38
e 16 39
e 16 40
e 16 41
e 16 42
e 16 43
e 16 45
e 16 46
e 16 47
e 16 48
e 16 49
e 16 50
e 16 63
e 16 70
e 16 71
e 16 77
e 16 78
e 16 79
e 16 80
e 16 82
e 16 83
e 16 84
e 16 85
e 16 86
e 16 87
e 16 90
e 16 91
e 16 92
e 17 18
e 17 19
e 17 20
e 17 21
e 17 22
e 17 23
e 17 24
e 17 25
e 17 26
e 17 27
e 17 28
e 17 29
e 17 30
e 17 31
e 17 32
e 17 33
e 17 34
e 17 35
e 17 36
e 17 37
e 17 38
e 17 39
e 17 40
e 17 41
e 17 42
e 17 43
e 17 44
e 17 45
e 17 46
e 17 47
e 17 48
e 17 49
e 17 50
e 17 51
e 17 52
e 17 53
e 17 54
e 17 55
e 17 56
e 17 57
e 17 58
e 17 59
e 17 60
e 17 61
e 17 62
e 17 63
e 17 64
e 17 65
e 17 66
e 17 67
e 17 68
e 17 69
e 17 70
e 17 71
e 17 72
e 17 73
e 17 74
e 17 75
e 17 76
e 17 77
e 17 78
e 17 79
e 17 80
e 17 81
e 17 82
e 17 83
e 17 84
e 17 85
e 17 86
e 17 87
e 17 88
e 17 89
e 17 90
e 17 91
e 17 92
e 18 19
e 18 20
e 18 21
e 18 22
e 18 23
e 18 24
e 18 25
e 18 26
e 18 27
e 18 28
e 18 29
e 18 30
e 18 31
e 18 32
e 18 34
e 18 35
e 18 36
e 18 37
e 18 44
e 18 51
e 18 52
e 18 53
e 18 54
e 18 55
e 18 56
e 18 57
e 18 58
e 18 59
e 18 60
e 18 61
e 18 62
e 18 64
e 18 65
e 18 66
e 18 67
e 18 68
e 18 69
e 18 72
e 18 73
e 18 74
e 18 75
e 18 76
e 18 81
e 18 88
e 18 89
e 19 20
e 19 21
e 19 22
e 19 23
e 19 24
e 19 25
e 19 26
e 19 27
e 19 28
e 19 29
e 19 30
e 19 31
e 19 32
e 19 34
e 19 35
e 19 36
e 19 37
e 19 44
e 19 51
e 19 52
e 19 53
e 19 54
e 19 55
e 19 56
e 19 57
e 19 58
e 19 59
e 19 60
e 19 61
e 19 62
e 19 64
e 19 65
e 19 66
e 19 67
e 19 68
e 19 69
e 19 72
e 19 73
e 19 74
e 19 75
e 19 76
e 19 81
e 19 88
e 19 89
e 19 90
e 20 21
e 20 22
e 20 23
e 20 24
e 20 25
e 20 26
e 20 27
e 20 28
e 20 29
e 20 30
e 20 31
e 20 32
e 20 34
e 20 35
e 20 36
e 20 37
e 20 44
e 20 51
e 20 52
e 20 53
e 20 54
e 20 55
e 20 56
e 20 57
e 20 58
e 20 59
e 20 60
e 20 61
e 20 62
e 20 64
e 20 65
e 20 66
e 20 67
e 20 68
e 20 69
e 20 72
e 20 73
e 20 74
e 20 75
e 20 76
e 20 81
e 20 88
e 20 89
e 20 90
e 20 91
e 21 22
e 21 23
e 21 24
e 21 25
e 21 26
e 21 27
e 21 28
e 21 29
e 21 30
e 21 31
e 21 32
e 21 34
e 21 35
e 21 36
e 21 37
e 21 44
e 21 51
e 21 52
e 21 53
e 21 54
e 21 55
e 21 56
e 21 57
e 21 58
e 21 59
e 21 60
e 21 61
e 21 62
e 21 64
e 21 65
e 21 66
e 21 67
e 21 68
e 21 69
e 21 72
e 21 73
e 21 74
e 21 75
e 21 76
e 21 81
e 21 88
e 21 89
e 21 90
e 21 91
e 21 92
e 22 23
e 22 24
e 22 25
e 22 26
e 22 27
e 22 28
e 22 29
e 22 30
e 22 31
e 22 32
e 22 34
e 22 35
e 22 36
e 22 37
e 22 38
e 22 44
e 22 51
e 22 52
e 22 53
e 22 54
e 22 55
e 22 56
e 22 57
e 22 58
e 22 59
e 22 60
e 22 61
e 22 62
e 22 64
e 22 65
e 22 66
e 22 67
e 22 68
e 22 69
e 22 72
e 22 73
e 22 74
e 22 75
e 22 76
e 22 81
e 22 88
e 22 89
e 22 90
e 22 91
e 22 92
e 23 24
e 23 25
e 23 26
e 23 27
e 23 28
e 23 29
e 23 30
e 23 31
e 23 32
e 23 34
e 23 35
e 23 36
e 23 37
e 23 38
e 23 39
e 23 44
e 23 51
e 23 52
e 23 53
e 23 54
e 23 55
e 23 56
e 23 57
e 23 58
e 23 59
e 23 60
e 23 61
e 23 62
e 23 64
e 23 65
e 23 66
e 23 67
e 23 68
e 23 69
e 23 72
e 23 73
e 23 74
e 23 75
e 23 76
e 23 81
e 23 88
e 23 89
e 23 90
e 23 91
e 23 92
e 24 25
e 24 26
e 24 27
e 24 28
e 24 29
e 24 30
e 24 31
e 24 32
e 24 34
e 24 35
e 24 36
e 24 37
e 24 38
e 24 39
e 24 40
e 24 44
e 24 51
e 24 52
e 24 53
e 24 54
e 24 55
e 24 56
e 24 57
e 24 58
e 24 59
e 24 60
e 24 61
e 24 62
e 24 64
e 24 65
e 24 66
e 24 67
e 24 68
e 24 69
e 24 72
e 24 73
e 24 74
e 24 75
e 24 76
e 24 81
e 24 88
e 24 89
e 24 90
e 24 91
e 24 92
e 25 26
e 25 27
e 25 28
e 25 29
e 25 30
e 25 31
e 25 32
e 25 34
e 25 35
e 25 36
e 25 37
e 25 38
e 25 39
e 25 40
e 25 41
e 25 44
e 25 51
e 25 52
e 25 53
e 25 54
e 25 55
e 25 56
e 25 57
e 25 58
e 25 59
e 25 60
e 25 61
e 25 62
e 25 64
e 25 65
e 25 66
e 25 67
e 25 68
e 25 69
e 25 72
e 25 73
e 25 74
e 25 75
e 25 76
e 25 81
e 25 88
e 25 89
e 25 90
e 25 91
e 25 92
e 26 27
e 26 28
e 26 29
e 26 30
e 26 31
e 26 32
e 26 34
e 26 35
e 26 36
e 26 37
e 26 38
e 26 39
e 26 40
e 26 41
e 26 42
e 26 44
e 26 51
e 26 52
e 26 53
e 26 54
e 26 55
e 26 56
e 26 57
e 26 58
e 26 59
e 26 60
e 26 61
e 26 62
e 26 64
e 26 65
e 26 66
e 26 67
e 26 68
e 26 69
e 26 72
e 26 73
e 26 74
e 26 75
e 26 76
e 26 81
e 26 88
e 26 89
e 26 90
e 26 91
e 26 92
e 27 28
e 27 29
e 27 30
e 27 31
e 27 32
e 27 34
e 27 35
e 27 36
e 27 37
e 27 44
e 27 51
e 27 52
e 27 53
e 27 54
e 27 55
e 27 56
e 27 57
e 27 58
e 27 59
e 27 60
e 27 61
e 27 62
e 27 64
e 27 65
e 27 66
e 27 67
e 27 68
e 27 69
e 27 72
e 27 73
e 27 74
e 27 75
e 27 76
e 27 81
e 27 88
e 27 89
e 28 29
e 28 30
e 28 31
e 28 32
e 28 34
e 28 35
e 28 36
e 28 37
e 28 44
e 28 51
e 28 52
e 28 53
e 28 54
e 28 55
e 28 56
e 28 57
e 28 58
e 28 59
e 28 60
e 28 61
e 28 62
e 28 64
e 28 65
e 28 66
e 28 67
e 28 68
e 28 69
e 28 72
e 28 73
e 28 74
e 28 75
e 28 76
e 28 81
e 28 88
e 28 89
e 29 30
e 29 31
e 29 32
e 29 34
e 29 35
e 29 36
e 29 37
e 29 44
e 29 51
e 29 52
e 29 53
e 29 54
e 29 55
e 29 56
e 29 57
e 29 58
e 29 59
e 29 60
e 29 61
e 29 62
e 29 64
e 29 65
e 29 66
e 29 67
e 29 68
e 29 69
e 29 72
e 29 73
e 29 74
e 29 75
e 29 76
e 29 81
e 29 88
e 29 89
e 30 31
e 30 32
e 30 34
e 30 35
e 30 36
e 30 37
e 30 44
e 30 51
e 30 52
e 30 53
e 30 54
e 30 55
e 30 56
e 30 57
e 30 58
e 30 59
e 30 60
e 30 61
e 30 62
e 30 64
e 30 65
e 30 66
e 30 67
e 30 68
e 30 69
e 30 72
e 30 73
e 30 74
e 30 75
e 30 76
e 30 81
e 30 88
e 30 89
e 31 32
e 31 34
e 31 35
e 31 36
e 31 37
e 31 44
e 31 51
e 31 52
e 31 53
e 31 54
e 31 55
e 31 56
e 31 57
e 31 58
e 31 59
e 31 60
e 31 61
e 31 62
e 31 64
e 31 65
e 31 66
e 31 67
e 31 68
e 31 69
e 31 72
e 31 73
e 31 74
e 31 75
e 31 76
e 31 81
e 31 88
e 31 89
e 32 34
e 32 35
e 32 36
e 32 37
e 32 44
e 32 51
e 32 52
e 32 53
e 32 54
e 32 55
e 32 56
e 32 57
e 32 58
e 32 59
e 32 60
e 32 61
e 32 62
e 32 64
e 32 65
e 32 66
e 32 67
e 32 68
e 32 69
e 32 72
e 32 73
e 32 74
e 32 75
e 32 76
e 32 81
e 32 88
e 32 89
e 33 38
e 33 39
e 33 40
e 33 41
e 33 42
e 33 43
e 33 45
e 33 46
e 33 47
e 33 48
e 33 49
e 33 50
e 33 63
e 34 44
e 34 51
e 34 52
e 34 53
e 34 54
e 34 55
e 34 56
e 34 57
e 34 58
e 34 59
e 34 60
e 34 76
e 34 81
e 35 44
e 35 51
e 35 52
e 35 53
e 35 54
e 35 55
e 35 56
e 35 57
e 35 58
e 35 59
e 35 60
e 35 89
e 36 44
e 36 51
e 36 52
e 36 53
e 36 54
e 36 55
e 36 56
e 36 57
e 36 58
e 36 59
e 36 60
e 36 88
e 38 39
e 38 40
e 38 41
e 38 42
e 38 43
e 38 45
e 38 46
e 38 47
e 38 48
e 38 49
e 38 50
e 38 63
e 38 70
e 38 71
e 38 77
e 38 78
e 38 79
e 38 80
e 38 82
e 38 83
e 38 84
e 38 85
e 38 86
e 38 87
e 38 90
e 38 91
e 38 92
e 39 40
e 39 41
e 39 42
e 39 43
e 39 45
e 39 46
e 39 47
e 39 48
e 39 49
e 39 50
e 39 63
e 39 70
e 39 71
e 39 77
e 39 78
e 39 79
e 39 80
e 39 82
e 39 83
e 39 84
e 39 85
e 39 86
e 39 87
e 39 90
e 39 91
e 39 92
e 40 41
e 40 42
e 40 43
e 40 45
e 40 46
e 40 47
e 40 48
e 40 49
e 40 50
e 40 63
e 40 70
e 40 71
e 40 77
e 40 78
e 40 79
e 40 80
e 40 82
e 40 83
e 40 84
e 40 85
e 40 86
e 40 87
e 40 90
e 40 91
e 40 92
e 41 42
e 41 43
e 41 45
e 41 46
e 41 47
e 41 48
e 41 49
e 41 50
e 41 63
e 41 70
e 41 71
e 41 77
e 41 78
e 41 79
e 41 80
e 41 82
e 41 83
e 41 84
e 41 85
e 41 86
e 41 87
e 41 90
e 41 91
e 41 92
e 42 43
e 42 45
e 42 46
e 42 47
e 42 48
e 42 49
e 42 50
e 42 63
e 42 70
e 42 71
e 42 77
e 42 78
e 42 79
e 42 80
e 42 82
e 42 83
e 42 84
e 42 85
e 42 86
e 42 87
e 42 90
e 42 91
e 42 92
e 43 45
e 43 46
e 43 47
e 43 48
e 43 49
e 43 50
e 43 63
e 43 70
e 43 71
e 43 77
e 43 78
e 43 79
e 43 80
e 43 82
e 43 83
e 43 84
e 43 85
e 43 86
e 43 87
e 43 90
e 43 91
e 43 92
e 44 51
e 44 52
e 44 53
e 44 54
e 44 55
e 44 56
e 44 57
e 44 58
e 44 59
e 44 60
e 44 61
e 44 62
e 44 64
e 44 65
e 44 66
e 44 67
e 44 68
e 44 69
e 44 72
e 44 73
e 44 74
e 44 75
e 44 76
e 44 81
e 44 88
e 44 89
e 45 46
e 45 47
e 45 48
e 45 49
e 45 50
e 45 63
e 45 70
e 45 71
e 45 77
e 45 78
e 45 79
e 45 80
e 45 82
e 45 83
e 45 84
e 45 85
e 45 86
e 45 87
e 46 47
e 46 48
e 46 49
e 46 50
e 46 63
e 46 70
e 46 71
e 46 77
e 46 78
e 46 79
e 46 80
e 46 82
e 46 83
e 46 84
e 46 85
e 46 86
e 46 87
e 47 48
e 47 49
e 47 50
e 47 63
e 47 70
e 47 71
e 47 77
e 47 78
e 47 79
e 47 80
e 47 82
e 47 83
e 47 84
e 47 85
e 47 86
e 47 87
e 48 49
e 48 50
e 48 63
e 48 70
e 48 71
e 48 77
e 48 78
e 48 79
e 48 80
e 48 82
e 48 83
e 48 84
e 48 85
e 48 86
e 48 87
e 49 50
e 49 63
e 49 70
e 49 71
e 49 77
e 49 78
e 49 79
e 49 80
e 49 82
e 49 83
e 49 84
e 49 85
e 49 86
e 49 87
e 50 63
e 50 70
e 50 71
e 50 77
e 50 78
e 50 79
e 50 80
e 50 82
e 50 83
e 50 84
e 50 85
e 50 86
e 50 87
e 51 52
e 51 53
e 51 54
e 51 55
e 51 56
e 51 57
e 51 58
e 51 59
e 51 60
e 51 61
e 51 62
e 51 64
e 51 65
e 51 66
e 51 67
e 51 68
e 51 69
e 51 72
e 51 73
e 51 74
e 51 75
e 51 76
e 51 81
e 51 88
e 51 89
e 52 53
e 52 54
e 52 55
e 52 56
e 52 57
e 52 58
e 52 59
e 52 60
e 52 61
e 52 62
e 52 64
e 52 65
e 52 66
e 52 67
e 52 68
e 52 69
e 52 72
e 52 73
e 52 74
e 52 75
e 52 76
e 52 81
e 52 88
e 52 89
e 53 54
e 53 55
e 53 56
e 53 57
e 53 58
e 53 59
e 53 60
e 53 61
e 53 62
e 53 64
e 53 65
e 53 66
e 53 67
e 53 68
e 53 69
e 53 72
e 53 73
e 53 74
e 53 75
e 53 76
e 53 81
e 53 88
e 53 89
e 54 55
e 54 56
e 54 57
e 54 58
e 54 59
e 54 60
e 54 61
e 54 62
e 54 64
e 54 65
e 54 66
e 54 67
e 54 68
e 54 69
e 54 72
e 54 73
e 54 74
e 54 75
e 54 76
e 54 81
e 54 88
e 54 89
e 55 56
e 55 57
e 55 58
e 55 59
e 55 60
e 55 61
e 55 62
e 55 64
e 55 65
e 55 66
e 55 67
e 55 68
e 55 69
e 55 72
e 55 73
e 55 74
e 55 75
e 55 76
e 55 81
e 55 88
e 55 89
e 56 57
e 56 58
e 56 59
e 56 60
e 56 61
e 56 62
e 56 64
e 56 65
e 56 66
e 56 67
e 56 68
e 56 69
e 56 72
e 56 73
e 56 74
e 56 75
e 56 76
e 56 81
e 56 88
e 56 89
e 57 58
e 57 59
e 57 60
e 57 61
e 57 62
e 57 64
e 57 65
e 57 66
e 57 67
e 57 68
e 57 69
e 57 72
e 57 73
e 57 74
e 57 75
e 57 76
e 57 81
e 57 88
e 57 89
e 58 59
e 58 60
e 58 61
e 58 62
e 58 64
e 58 65
e 58 66
e 58 67
e 58 68
e 58 69
e 58 72
e 58 73
e 58 74
e 58 75
e 58 76
e 58 81
e 58 88
e 58 89
e 59 60
e 59 61
e 59 62
e 59 64
e 59 65
e 59 66
e 59 67
e 59 68
e 59 69
e 59 72
e 59 73
e 59 74
e 59 75
e 59 76
e 59 81
e 59 88
e 59 89
e 60 61
e 60 62
e 60 64
e 60 65
e 60 66
e 60 67
e 60 68
e 60 69
e 60 72
e 60 73
e 60 74
e 60 75
e 60 76
e 60 81
e 60 88
e 60 89
e 61 62
e 64 65
e 66 67
e 66 68
e 66 69
e 67 68
e 67 69
e 68 69
e 69 72
e 69 73
e 70 71
e 72 73
e 74 75
e 76 81
e 77 78
e 77 79
e 78 79
e 80 82
e 83 84
e 83 85
e 84 85
e 86 87
e 90 91
e 90 92
e 91 92
